20
5
20675
251 560 465 349 266
false
0.25
2 29 1 7 45 40 42 4 1 15 23 15 37 48 38 50 3 31 12 18
15 28 23 16 36 25 16 12 40 6 27 30 42 45 34 2 50 33 40 49
34 32 5 28 43 25 13 8 43 13 47 38 11 49 45 48 48 6 7 49
31 26 3 22 42 11 19 26 28 3 49 12 14 12 10 48 36 31 21 16
8 19 39 26 4 26 45 44 21 30 19 3 7 2 5 45 26 33 27 25
15 78 40 50 71 67 31 34 90 61 59 69 15 37 71 80 85 75 56 13
0 0 0 0 0 0 0 1 51 0 0 0 0 19 33 0 0 0 0 0
0 24 0 0 0 60 87 0 0 0 0 67 0 0 0 0 25 0 0
0 0 0 0 0 0 0 90 0 0 0 0 0 0 65 22 81 64
0 71 0 0 0 0 0 0 30 0 38 0 50 0 0 0 0
0 0 0 58 0 0 0 0 0 0 57 0 0 0 0 18
0 0 80 0 0 78 0 37 81 0 100 98 0 70 0
0 0 50 0 0 0 0 0 0 0 29 0 0 0
0 0 90 0 0 17 77 0 0 66 0 0 0
0 0 0 0 0 0 2 10 0 0 0 0
0 95 16 0 0 0 0 0 0 0 0
0 0 0 0 0 0 0 0 0 65
0 0 0 0 0 0 85 0 0
0 31 0 0 46 99 19 0
0 0 0 0 0 0 16
0 0 0 0 0 81
0 0 0 0 0
0 0 10 0
0 34 0
0 56
0 0 68 0 0 0 0 0 56 0 9 0 0 0 0 92 0 0 0
0 54 59 0 0 33 0 89 31 0 0 0 0 0 22 0 0 0
0 0 87 0 0 89 0 0 27 0 0 81 0 0 0 7 1
0 0 36 0 0 0 0 0 0 0 0 0 0 0 0 0
0 75 0 0 86 0 0 0 0 0 52 0 0 0 93
0 0 0 0 0 31 0 0 0 0 0 0 43 0
0 0 0 0 0 0 0 0 0 0 0 0 0
0 0 0 79 0 0 0 0 0 0 0 0
0 0 0 0 0 0 87 0 0 6 0
0 0 0 0 0 0 0 0 16 98
0 0 0 77 0 67 0 0 0
0 0 0 0 66 0 1 87
0 0 0 57 74 0 0
0 0 0 62 59 0
0 0 0 0 76
0 98 56 0
0 0 0
0 0
0
0 0 42 0 0 0 72 0 0 0 0 0 0 0 78 0 0 0
0 0 0 63 0 0 0 0 0 59 36 0 23 0 0 69 0
0 0 0 0 99 0 0 0 0 0 9 0 0 0 0 0
0 51 0 0 0 0 0 0 0 97 0 0 75 0 1
0 0 15 0 0 0 0 0 0 0 0 0 9 0
0 0 0 59 50 0 0 0 0 0 0 0 0
0 0 48 0 0 0 0 0 0 17 0 5
0 0 0 0 0 0 92 0 0 0 0
0 0 0 0 0 0 0 0 0 0
0 0 0 0 0 11 95 75 0
0 0 0 0 24 0 99 0
0 0 1 0 0 0 26
0 0 11 0 0 0
0 0 0 0 0
0 0 0 0
0 0 88
0 0
0
0 0 0 0 71 0 0 72 27 0 0 30 0 0 11 0 0
0 0 0 0 0 0 0 0 0 0 0 0 0 0 0 0
0 21 50 0 0 25 0 72 0 5 0 0 0 0 0
0 0 0 21 0 0 0 0 0 0 0 0 0 0
0 2 44 0 0 0 0 23 0 0 32 0 87
0 96 0 0 0 0 0 86 0 0 50 0
0 0 8 85 42 19 59 0 74 0 69
0 0 10 0 37 0 52 0 77 0
0 0 0 40 0 63 70 0 0
0 0 0 0 0 0 0 0
0 0 0 0 36 0 60
0 0 12 0 19 31
0 0 0 0 0
0 0 0 0
0 40 0
0 0
0
0 0 0 95 94 0 26 0 20 77 17 0 0 0 0 40
0 94 0 0 86 9 0 0 89 51 0 51 0 0 0
0 69 0 0 0 0 96 0 11 0 0 67 77 0
0 0 0 0 0 0 40 0 0 0 10 0 30
0 0 0 0 0 0 0 0 0 0 0 0
0 0 41 55 0 0 0 0 72 60 69
0 0 0 0 0 51 84 0 0 0
0 0 0 0 0 0 0 0 21
0 0 0 37 0 0 55 0
0 0 0 0 0 0 0
0 0 85 0 12 42
0 0 0 0 0
0 0 0 0
0 1 47
0 58
0
0 0 0 0 0 0 0 0 55 0 0 87 0 0 11
0 54 0 0 0 0 56 0 0 0 67 0 0 30
0 0 0 0 0 0 0 0 0 0 0 0 0
0 0 0 0 74 0 0 81 0 0 0 0
0 0 0 0 0 0 0 0 0 0 98
0 0 0 8 0 0 0 0 0 61
0 0 0 0 0 0 0 0 0
0 0 0 0 0 0 0 0
0 0 0 13 0 0 53
0 0 0 0 0 0
0 0 0 0 0
0 0 69 80
0 0 0
0 0
0
0 0 0 33 0 0 0 0 14 0 0 0 0 5
0 0 59 0 0 0 0 0 0 45 0 0 0
0 0 0 0 0 0 0 0 0 0 9 0
0 0 0 42 0 46 0 0 0 0 0
0 43 67 0 0 0 92 0 0 44
0 0 68 0 0 0 60 0 0
0 0 0 68 0 0 0 0
0 0 0 0 0 0 0
0 0 0 95 0 41
0 65 31 31 55
0 0 0 0
0 0 0
0 0
0
0 0 0 0 0 0 60 16 0 0 12 0 0
0 0 94 0 0 0 0 0 0 0 88 8
0 2 33 0 82 7 0 0 0 0 0
0 0 0 0 29 0 5 0 58 0
0 0 0 0 0 0 0 0 0
0 0 0 0 0 0 0 0
0 2 0 0 0 0 0
0 0 0 37 0 28
0 99 0 0 0
0 27 0 0
0 0 2
0 0
0
0 83 0 84 0 0 0 24 74 0 60 41
0 0 0 0 0 0 0 0 0 0 91
0 0 0 65 0 0 67 0 0 0
0 0 0 70 0 0 53 0 0
0 41 0 0 0 0 0 78
0 47 0 0 81 41 0
0 0 0 0 0 12
0 0 0 0 0
0 0 29 0
0 0 0
0 0
0
0 0 0 0 0 0 23 34 12 0 0
0 0 0 56 0 0 0 0 54 0
0 0 0 54 20 0 0 54 0
0 43 1 0 0 48 60 0
0 0 0 0 96 0 0
0 0 0 0 39 0
0 0 0 30 0
0 0 0 0
0 0 0
0 58
0
0 0 0 0 0 0 82 0 0 0
0 35 0 0 0 0 0 0 0
0 48 0 55 0 0 0 0
0 0 0 0 0 0 0
0 0 67 0 0 0
0 0 0 0 0
0 0 0 0
0 0 0
0 99
0
0 0 0 0 0 65 93 78 0
0 0 0 0 29 98 0 0
0 0 0 0 0 0 0
0 0 0 75 34 0
0 0 0 0 0
0 0 0 17
0 0 54
0 0
0
0 0 95 89 0 0 0 28
0 0 0 0 21 0 25
0 88 66 0 0 0
0 97 1 0 82
0 35 0 0
0 15 85
0 0
0
0 0 0 0 62 0 48
0 0 81 0 0 0
0 0 0 0 0
0 0 85 0
0 0 0
0 0
0
0 0 0 84 0 0
0 0 35 0 0
0 0 0 43
0 0 18
0 90
0
0 0 0 0 17
0 0 0 0
0 53 0
0 0
0
0 0 0 0
0 26 6
0 0
0
0 82 83
0 0
0
0 0
0
0
2406 2065 2594 3053 1786 2947 1897 2492 2357 2699 2362 2528 2428 2122 2272 1827 3013 2789 2457 2833
362.5055218216319 79.51908680022336 831.3524191750279 198.43737512487513 123.97173864894793 138.13804895104894 90.3299808816914 258.9298368298368 533.4311240310078 365.4030769230769 82.5904647821336 274.5319298245614 172.8888264888265 274.50066893424037 171.74037839697283 213.35299999999998 265.3886452991453 162.7598240469208 165.035 112.68080839002269
